minimize
obj: 30 x_1__out + 30 x_2__out + 4 x_3__out + 81 x_4__out + 11 x_5__out + 22 x_6__out + 50 x_7__out + 45 x_8__out + 54 x_9__out + 86 x_10__out + 1000 p_1_ + 1000 p_2_ + 1 x23
subject to
knapsack_1_: 14 x_1__out + 12 x_2__out + 64 x_3__out + 92 x_4__out + 61 x_5__out + 93 x_6__out + 90 x_7__out + 14 x_8__out + 56 x_9__out + 61 x_10__out + 1 p_1_ >= 417.75
knapsack_2_: 21 x_1__out + 75 x_2__out + 53 x_3__out + 89 x_4__out + 45 x_5__out + 2 x_6__out + 2 x_7__out + 9 x_8__out + 100 x_9__out + 2 x_10__out + 1 p_2_ >= 298.5
Bounds
x_1__in = 0
x_2__in = 0
x_3__in = 0
x_4__in = 0
x_5__in = 0
x_6__in = 0
x_7__in = 0
x_8__in = 0
x_9__in = 0
x_10__in = 0
x_1__out >= 0
x_2__out >= 0
x_3__out >= 0
x_4__out >= 0
x_5__out >= 0
x_6__out >= 0
x_7__out >= 0
x_8__out >= 0
x_9__out >= 0
x_10__out >= 0
p_1_ >= 1
p_2_ >= 1
x23 >= 0
Binary
x_1__out
x_2__out
x_3__out
x_4__out
x_5__out
x_6__out
x_7__out
x_8__out
x_9__out
x_10__out
End
